param TOT_LAYERS := 4;  # Total Number of layers in the ANN
param N_NODES := 5 5 5 2;  # Number of nodes for each layer
param ANN_WEIGTHS :=
                     1   -0.21 0.47 0.64 0.85 0.43 -0.21 0.78 0.47 -0.21 -0.65 0.09 0.19 -0.62 -0.93 0.87 -0.05 0.9 -0.67 0.11 0.53 0.49 0.57 0.24 0.83 0.58
                     2   0.63 -0.23 -0.8 0.45 0.67 0.95 -0.07 0.8 0.88 0.78 0.81 0.37 -0.78 0.65 0.06 0.26 0.25 -0.7 0.89 0.22 -0.2 -0.2 0.33 0.19 -0.76
                     3   -0.71 -0.37 0.37 -0.55 -0.92 -0.65 -0.78 0.45 0.95 -0.49 ;
end;
